atom_style	granular
atom_modify	map array
boundary	f f f
newton		off
hard_particles yes

communicate	single vel yes
processors	2 2 1

units		si

region		reg block -0.045 0.045 -0.025 0.025 0 0.003 units box
create_box	2 reg

neighbor	0.005 bin
neigh_modify	delay 0



#Material properties required for new pair styles

fix 		m1 all property/global youngsModulus peratomtype 100.e9 200e9
fix 		m2 all property/global poissonsRatio peratomtype 0.25 0.25
fix 		m3 all property/global coefficientRestitution peratomtypepair 2 0.1 0.1 0.1 0.1
fix 		m4 all property/global coefficientFriction peratomtypepair 2 0.1 0.01 0.01 0.01
#fix 		m5 all property/global characteristicVelocity scalar 2.
#fix 		m6 all property/global cohesionEnergyDensity peratomtypepair 1 500

#New pair style
pair_style gran model hertz tangential history #Hertzian without cohesion
pair_coeff	* *

timestep	0.00000001

fix		gravi all gravity 9.81 vector 0.0 0.0 -1

#particle distributions
fix		pts1 all particletemplate/sphere 10007 atom_type 1 density constant 2000 radius constant 0.001

fix		pdd1 all particledistribution/discrete 888373 1 pts1 1 #pts2 0.7


######## walls
fix zwalls1 all wall/gran model hertz tangential history primitive type 2 zplane 0.0021
fix zwalls0 all wall/gran model hertz tangential history primitive type 2 zplane 0.0

fix xwalls1 all wall/gran model hertz tangential history primitive type 2 xplane 0.04
fix xwalls0 all wall/gran model hertz tangential history primitive type 2 xplane -0.055
fix ywalls1 all wall/gran model hertz tangential history primitive type 2 yplane 0.02
fix ywalls0 all wall/gran model hertz tangential history primitive type 2 yplane -0.02


fix 		rx1 all mesh/surface/stress file rx_wall_0.stl type 2  stress on
fix 		rx2b all mesh/surface/stress file rx_wall_0b.stl type 2 stress on

fix 		ry1 all mesh/surface/stress file ry1_wall.stl type 2 scale 0.001  stress on 
fix 		ry2 all mesh/surface/stress file ry2_wall.stl type 2 scale 1  stress on


fix 		geom2  all  wall/gran model hertz tangential history mesh n_meshes  4 meshes rx1 rx2b ry1 ry2   

#region and insertion

################### creating hcp


lattice		hcp 0.002 orient x 1 0 0 orient y 0 1 0 orient z 0 0 1


region		reg_ins block -0.0397 0.0397 -0.02 0.02 0.0005 0.0017 units box


create_atoms    1 region reg_ins  units box

###***************************************************************************************


group	nve_group region reg_ins
set             group nve_group diameter 0.002 density 2000 


compute   q  all  pair/gran/local  id force_normal force_tangential history contactArea delta pos vel force


compute   kl all  wall/gran/local  id force_normal force_tangential history contactArea delta 


#apply nve integration to all particles that are inserted as single particles
fix		integr all nve/sphere



#output settings, include total thermal energy
compute		1 all erotate/sphere
thermo_style	custom step atoms ke c_1 vol
thermo		10000
thermo_modify	lost ignore norm no
#filedirectory creation
shell mkdir coord
shell mkdir coordvtk
shell mkdir contact

#insert the first particles so that dump is not empty
run		1
dump		dmp all custom 50000 coord/cd_*.dat id type x y z vx vy vz fx fy fz omegax omegay omegaz radius

dump		dmp3 all custom/vtk 50000 coordvtk/cd_*.vtk id type x y z vx vy vz fx fy fz omegax omegay omegaz radius


dump               dmp10   all local     50000  contact/p*.dat c_q[13] c_q[14] c_q[15] c_q[16] c_q[17] c_q[18] c_q[19] c_q[20] c_q[21]
#c_q[1] c_q[2] c_q[3] c_q[4] c_q[5] c_q[6] c_q[7] c_q[8] c_q[9] c_q[10] c_q[11] c_q[12] c_q[13] c_q[14] c_q[15] c_q[16]



run		10000




group del_particle id 233  #659

delete_atoms group del_particle

fix move all move/mesh mesh rx2b linear 0.02 0 0.


run 		750000	


dump               dmp11   all local/gran/vtk     50000  contactvtk/p*.vtk  q


#dump            dmp2 all mesh/vtk  50000  coord/wall*.vtk   rx2b vel

#insert particles


run             6000000

unfix move

write_restart liggghts0.restart

